\ENCODING=ISO-8859-1
\Problem name: IloCplex

Maximize
 Max_Cycle_Covers_Objective: 2 s_0 + 2 s_1 + 2 s_2 + 2 s_5 + 2 s_3 + 3 s_4
                             + 3 s_19 + 2 s_6 + 3 s_7 + 3 s_23 + 2 s_8 + 3 s_9
                             + 3 s_10 + 2 s_11 + 3 s_12 + 3 s_13 + 2 s_14
                             + 3 s_15 + 3 s_16 + 2 s_17 + 2 s_18 + 2 s_21
                             + 2 s_20 + 2 s_22
Subject To
 CycleDisjointness_0:  <= 1
 CycleDisjointness_1:  s_0 <= 1
 CycleDisjointness_2:  s_1 <= 1
 CycleDisjointness_3:  s_2 + s_5 <= 1
 CycleDisjointness_4:  <= 1
 CycleDisjointness_5:  s_3 <= 1
 CycleDisjointness_6:  s_4 + s_19 <= 1
 CycleDisjointness_7:  <= 1
 CycleDisjointness_8:  <= 1
 CycleDisjointness_9:  <= 1
 CycleDisjointness_10: <= 1
 CycleDisjointness_11: <= 1
 CycleDisjointness_12: <= 1
 CycleDisjointness_13: <= 1
 CycleDisjointness_14: s_2 + s_5 + s_6 <= 1
 CycleDisjointness_15: <= 1
 CycleDisjointness_16: <= 1
 CycleDisjointness_17: <= 1
 CycleDisjointness_18: <= 1
 CycleDisjointness_19: <= 1
 CycleDisjointness_20: <= 1
 CycleDisjointness_21: s_7 + s_23 <= 1
 CycleDisjointness_22: <= 1
 CycleDisjointness_23: <= 1
 CycleDisjointness_24: <= 1
 CycleDisjointness_25: s_8 + s_9 + s_10 + s_11 + s_12 + s_13 + s_14 + s_15
                       + s_16 <= 1
 CycleDisjointness_26: s_9 + s_12 <= 1
 CycleDisjointness_27: s_6 <= 1
 CycleDisjointness_28: <= 1
 CycleDisjointness_29: <= 1
 CycleDisjointness_30: s_8 + s_9 + s_10 + s_13 + s_14 + s_15 + s_16 + s_17 <= 1
 CycleDisjointness_31: <= 1
 CycleDisjointness_32: <= 1
 CycleDisjointness_33: <= 1
 CycleDisjointness_34: <= 1
 CycleDisjointness_35: <= 1
 CycleDisjointness_36: <= 1
 CycleDisjointness_37: <= 1
 CycleDisjointness_38: s_18 + s_21 <= 1
 CycleDisjointness_39: <= 1
 CycleDisjointness_40: s_4 + s_19 + s_20 + s_22 <= 1
 CycleDisjointness_41: <= 1
 CycleDisjointness_42: <= 1
 CycleDisjointness_43: <= 1
 CycleDisjointness_44: <= 1
 CycleDisjointness_45: <= 1
 CycleDisjointness_46: s_7 + s_23 <= 1
 CycleDisjointness_47: <= 1
 CycleDisjointness_48: <= 1
 CycleDisjointness_49: <= 1
 CycleDisjointness_50: <= 1
 CycleDisjointness_51: <= 1
 CycleDisjointness_52: <= 1
 CycleDisjointness_53: <= 1
 CycleDisjointness_54: <= 1
 CycleDisjointness_55: <= 1
 CycleDisjointness_56: s_1 <= 1
 CycleDisjointness_57: <= 1
 CycleDisjointness_58: <= 1
 CycleDisjointness_59: <= 1
 CycleDisjointness_60: <= 1
 CycleDisjointness_61: <= 1
 CycleDisjointness_62: <= 1
 CycleDisjointness_63: <= 1
 CycleDisjointness_64: <= 1
 CycleDisjointness_65: <= 1
 CycleDisjointness_66: <= 1
 CycleDisjointness_67: <= 1
 CycleDisjointness_68: <= 1
 CycleDisjointness_69: <= 1
 CycleDisjointness_70: <= 1
 CycleDisjointness_71: s_10 + s_11 + s_12 + s_13 + s_15 + s_16 + s_17 <= 1
 CycleDisjointness_72: <= 1
 CycleDisjointness_73: <= 1
 CycleDisjointness_74: <= 1
 CycleDisjointness_75: s_18 + s_21 <= 1
 CycleDisjointness_76: <= 1
 CycleDisjointness_77: <= 1
 CycleDisjointness_78: <= 1
 CycleDisjointness_79: <= 1
 CycleDisjointness_80: <= 1
 CycleDisjointness_81: <= 1
 CycleDisjointness_82: <= 1
 CycleDisjointness_83: <= 1
 CycleDisjointness_84: <= 1
 CycleDisjointness_85: <= 1
 CycleDisjointness_86: <= 1
 CycleDisjointness_87: <= 1
 CycleDisjointness_88: <= 1
 CycleDisjointness_89: <= 1
 CycleDisjointness_90: <= 1
 CycleDisjointness_91: <= 1
 CycleDisjointness_92: s_4 + s_19 <= 1
 CycleDisjointness_93: <= 1
 CycleDisjointness_94: <= 1
 CycleDisjointness_95: s_7 + s_23 + s_20 + s_22 <= 1
 CycleDisjointness_96: <= 1
 CycleDisjointness_97: s_0 + s_3 <= 1
 CycleDisjointness_98: <= 1
 CycleDisjointness_99: <= 1
Bounds
 0 <= s_0 <= 1
 0 <= s_1 <= 1
 0 <= s_2 <= 1
 0 <= s_5 <= 1
 0 <= s_3 <= 1
 0 <= s_4 <= 1
 0 <= s_19 <= 1
 0 <= s_6 <= 1
 0 <= s_7 <= 1
 0 <= s_23 <= 1
 0 <= s_8 <= 1
 0 <= s_9 <= 1
 0 <= s_10 <= 1
 0 <= s_11 <= 1
 0 <= s_12 <= 1
 0 <= s_13 <= 1
 0 <= s_14 <= 1
 0 <= s_15 <= 1
 0 <= s_16 <= 1
 0 <= s_17 <= 1
 0 <= s_18 <= 1
 0 <= s_21 <= 1
 0 <= s_20 <= 1
 0 <= s_22 <= 1
Binaries
 s_0  s_1  s_2  s_5  s_3  s_4  s_19  s_6  s_7  s_23  s_8  s_9  s_10  s_11 
 s_12  s_13  s_14  s_15  s_16  s_17  s_18  s_21  s_20  s_22 
End
